 &control
    calculation = 'vc-relax'
    forc_conv_thr = 1.d-7
    pseudo_dir = '../pseudo/'
    outdir = './output/'
 /
 &system
    ibrav = 0
    nat =  2
    ntyp = 2
    ecutwfc = 70.0
 /
 &electrons
    diagonalization='david'
    conv_thr = 1.d-7
 /
 &ions
    ion_dynamics = 'bfgs'
 /
 &cell
    cell_dynamics = 'bfgs'
 /
ATOMIC_SPECIES
 Mg  24.305  Mg.pbe-nsp-bpaw.UPF
 O   15.999  O.pbe-kjpaw.UPF
ATOMIC_POSITIONS crystal
 Mg 0.00 0.00 0.00
 O  0.50 0.50 0.50
CELL_PARAMETERS angstrom
 2.14     0 2.14
    0  2.14 2.14
 2.14  2.14    0
K_POINTS automatic
 8 8 8 0 0 0
