&control
    calculation = 'scf'
    pseudo_dir = '../pseudo/'
    outdir = './output/'
    tprnfor = .true.
    tstress = .true.
 /
 &system
    ibrav = 0
    nat = 64
    ntyp = 2
    ecutwfc = 70.0
 /
 &electrons
    diagonalization='david'
    conv_thr = 1.d-9
 /
K_POINTS automatic
 4 4 4 1 1 1
