!    ibrav = 0, nat = 64, ntyp = 2
CELL_PARAMETERS bohr
   16.2235578546414096    0.0000000000000000    0.0000000000000000
    0.0000000000000000   16.2235578546414096    0.0000000000000000
    0.0000000000000000    0.0000000000000000   16.2235578546414096
ATOMIC_SPECIES
 Mg   24.30500   Mg.pbe-nsp-bpaw.UPF
  O   15.99940   O.pbe-kjpaw.UPF
ATOMIC_POSITIONS crystal
 Mg   0.0000000000000000  0.0000000000000000  0.0000000000000000
 Mg   0.5000000000000000  0.0000000000000000  0.0000000000000000
 Mg   0.0000000000000000  0.5000000000000000  0.0000000000000000
 Mg   0.5000000000000000  0.5000000000000000  0.0000000000000000
 Mg   0.0000000000000000  0.0000000000000000  0.5000000000000000
 Mg   0.5000000000000000  0.0000000000000000  0.5000000000000000
 Mg   0.0000000000000000  0.5000000000000000  0.5000000000000000
 Mg   0.5000000000000000  0.5000000000000000  0.5000000000000000
 Mg   0.2500000000000000  0.2500000000000000  0.0000000000000000
 Mg   0.7500000000000000  0.2500000000000000  0.0000000000000000
 Mg   0.2500000000000000  0.7500000000000000  0.0000000000000000
 Mg   0.7500000000000000  0.7500000000000000  0.0000000000000000
 Mg   0.2500000000000000  0.2500000000000000  0.5000000000000000
 Mg   0.7500000000000000  0.2500000000000000  0.5000000000000000
 Mg   0.2500000000000000  0.7500000000000000  0.5000000000000000
 Mg   0.7500000000000000  0.7500000000000000  0.5000000000000000
 Mg   0.0000000000000000  0.2500000000000000  0.2500000000000000
 Mg   0.5000000000000000  0.2500000000000000  0.2500000000000000
 Mg   0.0000000000000000  0.7500000000000000  0.2500000000000000
 Mg   0.5000000000000000  0.7500000000000000  0.2500000000000000
 Mg   0.0000000000000000  0.2500000000000000  0.7500000000000000
 Mg   0.5000000000000000  0.2500000000000000  0.7500000000000000
 Mg   0.0000000000000000  0.7500000000000000  0.7500000000000000
 Mg   0.5000000000000000  0.7500000000000000  0.7500000000000000
 Mg   0.2500000000000000  0.0000000000000000  0.2500000000000000
 Mg   0.7500000000000000  0.0000000000000000  0.2500000000000000
 Mg   0.2500000000000000  0.5000000000000000  0.2500000000000000
 Mg   0.7500000000000000  0.5000000000000000  0.2500000000000000
 Mg   0.2500000000000000  0.0000000000000000  0.7500000000000000
 Mg   0.7500000000000000  0.0000000000000000  0.7500000000000000
 Mg   0.2500000000000000  0.5000000000000000  0.7500000000000000
 Mg   0.7500000000000000  0.5000000000000000  0.7500000000000000
  O   0.2512327752136242  0.0000000000000000  0.0000000000000000
  O   0.7500000000000000  0.0000000000000000  0.0000000000000000
  O   0.2500000000000000  0.5000000000000000  0.0000000000000000
  O   0.7500000000000000  0.5000000000000000  0.0000000000000000
  O   0.2500000000000000  0.0000000000000000  0.5000000000000000
  O   0.7500000000000000  0.0000000000000000  0.5000000000000000
  O   0.2500000000000000  0.5000000000000000  0.5000000000000000
  O   0.7500000000000000  0.5000000000000000  0.5000000000000000
  O   0.0000000000000000  0.2500000000000000  0.0000000000000000
  O   0.5000000000000000  0.2500000000000000  0.0000000000000000
  O   0.0000000000000000  0.7500000000000000  0.0000000000000000
  O   0.5000000000000000  0.7500000000000000  0.0000000000000000
  O   0.0000000000000000  0.2500000000000000  0.5000000000000000
  O   0.5000000000000000  0.2500000000000000  0.5000000000000000
  O   0.0000000000000000  0.7500000000000000  0.5000000000000000
  O   0.5000000000000000  0.7500000000000000  0.5000000000000000
  O   0.0000000000000000  0.0000000000000000  0.2500000000000000
  O   0.5000000000000000  0.0000000000000000  0.2500000000000000
  O   0.0000000000000000  0.5000000000000000  0.2500000000000000
  O   0.5000000000000000  0.5000000000000000  0.2500000000000000
  O   0.0000000000000000  0.0000000000000000  0.7500000000000000
  O   0.5000000000000000  0.0000000000000000  0.7500000000000000
  O   0.0000000000000000  0.5000000000000000  0.7500000000000000
  O   0.5000000000000000  0.5000000000000000  0.7500000000000000
  O   0.2500000000000000  0.2500000000000000  0.2500000000000000
  O   0.7500000000000000  0.2500000000000000  0.2500000000000000
  O   0.2500000000000000  0.7500000000000000  0.2500000000000000
  O   0.7500000000000000  0.7500000000000000  0.2500000000000000
  O   0.2500000000000000  0.2500000000000000  0.7500000000000000
  O   0.7500000000000000  0.2500000000000000  0.7500000000000000
  O   0.2500000000000000  0.7500000000000000  0.7500000000000000
  O   0.7500000000000000  0.7500000000000000  0.7500000000000000